c FILE /home/rafael/Documents/HappySet/MIHS/inputs/happygen/output/graph_scale_free_k4_p0.4_v100_20241127_083830.txt
c SOURCE This is a scale-free graph formed for the happy graph colouring problem.
c DESCRIPTION It was generated using the problem generator of Rhyd Lewis
c
c GRAPH STATS
c Seed                             = -263141980
c Number of Nodes                  = 100
c Number of colours k              = 4
c Number of pre-assignments        = 40
c Number of links per new node     = 5
c Density                          = 0.0979798
c 
c The degrees of nodes 1 to 100, respectively, are as follows 
c [32, 31, 28, 28, 27, 27, 24, 23, 23, 22, 21, 20, 19, 17, 17, 15, 14, 14, 13, 12, 12, 12, 11, 11, 11, 11, 
c  11, 11, 10, 10, 9, 9, 9, 9, 9, 9, 9, 8, 8, 8, 8, 8, 8, 7, 7, 7, 7, 7, 7, 7, 7, 
c  7, 7, 6, 6, 6, 6, 6, 6, 6, 6, 6, 6, 6, 6, 6, 6, 6, 6, 6, 5, 5, 5, 5, 5, 5, 
c  5, 5, 5, 5, 5, 5, 5, 5, 5, 5, 5, 5, 5, 5, 5, 5, 5, 5, 5, 5, 5, 5, 5, 5] 
c  
p edge 100 485 4
e 1 2
e 1 3
e 1 4
e 1 5
e 1 6
e 1 7
e 1 8
e 1 10
e 1 12
e 1 13
e 1 17
e 1 29
e 1 32
e 1 35
e 1 37
e 1 43
e 1 44
e 1 45
e 1 50
e 1 52
e 1 54
e 1 61
e 1 63
e 1 68
e 1 70
e 1 79
e 1 80
e 1 81
e 1 86
e 1 88
e 1 90
e 1 93
e 2 3
e 2 5
e 2 8
e 2 9
e 2 10
e 2 11
e 2 12
e 2 15
e 2 16
e 2 20
e 2 21
e 2 22
e 2 23
e 2 25
e 2 33
e 2 35
e 2 39
e 2 40
e 2 50
e 2 51
e 2 54
e 2 57
e 2 59
e 2 60
e 2 79
e 2 83
e 2 86
e 2 89
e 2 96
e 2 97
e 3 4
e 3 5
e 3 6
e 3 7
e 3 8
e 3 10
e 3 12
e 3 13
e 3 17
e 3 18
e 3 19
e 3 23
e 3 25
e 3 28
e 3 36
e 3 39
e 3 47
e 3 51
e 3 52
e 3 61
e 3 63
e 3 75
e 3 80
e 3 85
e 3 90
e 3 92
e 4 5
e 4 6
e 4 7
e 4 11
e 4 12
e 4 15
e 4 19
e 4 20
e 4 24
e 4 25
e 4 27
e 4 30
e 4 35
e 4 41
e 4 45
e 4 46
e 4 48
e 4 49
e 4 50
e 4 54
e 4 66
e 4 70
e 4 72
e 4 78
e 4 94
e 4 100
e 5 6
e 5 8
e 5 12
e 5 13
e 5 17
e 5 23
e 5 25
e 5 27
e 5 31
e 5 32
e 5 33
e 5 34
e 5 39
e 5 47
e 5 48
e 5 53
e 5 58
e 5 59
e 5 60
e 5 77
e 5 84
e 5 96
e 5 100
e 6 8
e 6 10
e 6 13
e 6 14
e 6 15
e 6 17
e 6 19
e 6 20
e 6 21
e 6 25
e 6 28
e 6 34
e 6 36
e 6 41
e 6 49
e 6 55
e 6 64
e 6 76
e 6 78
e 6 94
e 6 95
e 6 98
e 6 99
e 7 10
e 7 12
e 7 18
e 7 20
e 7 24
e 7 26
e 7 27
e 7 34
e 7 37
e 7 41
e 7 49
e 7 71
e 7 75
e 7 77
e 7 86
e 7 87
e 7 88
e 7 89
e 7 92
e 7 96
e 7 98
e 8 12
e 8 14
e 8 15
e 8 16
e 8 17
e 8 22
e 8 26
e 8 34
e 8 36
e 8 38
e 8 44
e 8 47
e 8 62
e 8 75
e 8 76
e 8 89
e 8 98
e 8 99
e 9 10
e 9 11
e 9 15
e 9 18
e 9 19
e 9 26
e 9 29
e 9 36
e 9 37
e 9 38
e 9 41
e 9 43
e 9 44
e 9 48
e 9 51
e 9 53
e 9 61
e 9 67
e 9 71
e 9 82
e 9 84
e 9 90
e 10 13
e 10 14
e 10 15
e 10 16
e 10 23
e 10 24
e 10 31
e 10 33
e 10 45
e 10 46
e 10 54
e 10 56
e 10 71
e 10 78
e 10 88
e 10 100
e 11 14
e 11 18
e 11 21
e 11 28
e 11 29
e 11 31
e 11 32
e 11 34
e 11 40
e 11 41
e 11 42
e 11 55
e 11 56
e 11 69
e 11 72
e 11 73
e 11 78
e 11 97
e 12 14
e 12 17
e 12 26
e 12 32
e 12 52
e 12 56
e 12 62
e 12 63
e 12 64
e 12 66
e 12 72
e 12 73
e 12 77
e 13 14
e 13 16
e 13 17
e 13 23
e 13 30
e 13 31
e 13 32
e 13 43
e 13 46
e 13 50
e 13 54
e 13 66
e 13 69
e 13 91
e 14 22
e 14 31
e 14 37
e 14 48
e 14 52
e 14 55
e 14 62
e 14 73
e 14 74
e 14 79
e 14 81
e 15 16
e 15 24
e 15 30
e 15 38
e 15 42
e 15 65
e 15 66
e 15 67
e 15 68
e 15 72
e 15 98
e 16 21
e 16 40
e 16 56
e 16 65
e 16 68
e 16 73
e 16 82
e 16 87
e 16 90
e 16 96
e 17 37
e 17 39
e 17 40
e 17 53
e 17 58
e 17 71
e 17 85
e 18 19
e 18 20
e 18 30
e 18 40
e 18 42
e 18 45
e 18 58
e 18 61
e 18 65
e 18 83
e 19 21
e 19 46
e 19 74
e 19 77
e 19 86
e 19 91
e 19 95
e 19 99
e 20 25
e 20 33
e 20 35
e 20 47
e 20 60
e 20 61
e 20 75
e 21 36
e 21 57
e 21 59
e 21 62
e 21 74
e 21 92
e 21 93
e 22 27
e 22 38
e 22 49
e 22 73
e 22 80
e 22 83
e 22 87
e 22 91
e 22 95
e 23 24
e 23 26
e 23 27
e 23 31
e 23 47
e 23 68
e 24 26
e 24 63
e 24 64
e 24 69
e 24 91
e 24 99
e 25 42
e 25 44
e 25 49
e 25 71
e 25 72
e 26 38
e 26 55
e 26 56
e 26 65
e 26 81
e 27 32
e 27 35
e 27 38
e 27 42
e 27 52
e 27 64
e 28 38
e 28 43
e 28 48
e 28 54
e 28 55
e 28 59
e 28 88
e 28 93
e 29 38
e 29 48
e 29 53
e 29 58
e 29 76
e 29 77
e 29 90
e 30 56
e 30 66
e 30 70
e 30 76
e 30 97
e 30 99
e 31 32
e 31 33
e 31 57
e 32 69
e 32 89
e 33 63
e 33 74
e 33 85
e 33 97
e 34 39
e 34 51
e 34 74
e 34 83
e 35 62
e 35 76
e 35 81
e 35 84
e 36 45
e 36 67
e 36 81
e 36 83
e 37 59
e 37 85
e 37 87
e 37 88
e 39 53
e 39 86
e 39 89
e 40 57
e 40 70
e 40 79
e 41 44
e 41 50
e 41 57
e 42 67
e 42 68
e 42 84
e 43 44
e 43 51
e 43 69
e 43 94
e 44 64
e 45 46
e 45 65
e 46 60
e 46 85
e 47 60
e 47 82
e 48 58
e 49 80
e 49 87
e 50 96
e 50 98
e 51 79
e 51 84
e 52 80
e 52 82
e 53 67
e 53 91
e 55 82
e 57 75
e 58 78
e 59 95
e 60 95
e 61 94
e 62 97
e 63 92
e 64 93
e 65 100
e 66 94
e 67 70
e 68 93
e 69 92
e 70 100
n 13 2
n 16 2
n 18 4
n 20 4
n 23 2
n 24 2
n 25 4
n 28 1
n 32 2
n 36 3
n 38 1
n 39 2
n 41 3
n 42 4
n 48 1
n 51 4
n 52 4
n 53 2
n 57 3
n 59 1
n 60 4
n 63 2
n 69 2
n 70 3
n 72 4
n 73 2
n 76 4
n 77 2
n 78 4
n 80 4
n 81 3
n 84 4
n 85 1
n 88 1
n 89 2
n 90 2
n 93 1
n 94 4
n 97 3
n 100 3
